% Data file generated from RandomInstances/22_0.60_3.col DIMACS file
size = 22;

chi = 7;

adjacency = [|0,0,0,1,1,0,0,0,1,0,1,1,0,1,1,0,1,0,0,1,0,0,
|0,0,0,1,1,1,1,1,1,0,1,0,0,0,1,0,1,1,1,0,1,1,
|0,0,0,0,0,1,0,1,1,0,1,1,0,1,1,1,1,1,0,1,1,1,
|1,1,0,0,1,0,1,0,0,0,0,1,1,1,1,0,1,1,1,1,1,1,
|1,1,0,1,0,1,1,0,1,1,1,1,1,0,1,1,0,1,1,1,1,1,
|0,1,1,0,1,0,1,1,0,1,0,1,1,1,1,1,0,0,1,1,0,0,
|0,1,0,1,1,1,0,0,1,1,1,1,1,1,0,1,1,1,0,1,0,1,
|0,1,1,0,0,1,0,0,1,1,1,1,1,0,0,1,1,1,1,1,0,1,
|1,1,1,0,1,0,1,1,0,1,1,0,0,0,0,0,1,1,1,0,1,1,
|0,0,0,0,1,1,1,1,1,0,0,1,1,1,1,0,0,0,1,0,1,0,
|1,1,1,0,1,0,1,1,1,0,0,0,0,1,1,1,0,1,0,0,0,1,
|1,0,1,1,1,1,1,1,0,1,0,0,0,0,0,1,1,0,1,0,1,1,
|0,0,0,1,1,1,1,1,0,1,0,0,0,1,0,0,1,1,1,1,1,1,
|1,0,1,1,0,1,1,0,0,1,1,0,1,0,1,0,0,1,1,1,1,1,
|1,1,1,1,1,1,0,0,0,1,1,0,0,1,0,0,0,1,0,1,1,1,
|0,0,1,0,1,1,1,1,0,0,1,1,0,0,0,0,1,1,1,0,0,1,
|1,1,1,1,0,0,1,1,1,0,0,1,1,0,0,1,0,0,1,1,1,0,
|0,1,1,1,1,0,1,1,1,0,1,0,1,1,1,1,0,0,1,0,0,1,
|0,1,0,1,1,1,0,1,1,1,0,1,1,1,0,1,1,1,0,1,1,1,
|1,0,1,1,1,1,1,1,0,0,0,0,1,1,1,0,1,0,1,0,0,1,
|0,1,1,1,1,0,0,0,1,1,0,1,1,1,1,0,1,0,1,0,0,1,
|0,1,1,1,1,0,1,1,1,0,1,1,1,1,1,1,0,1,1,1,1,0,
|];